data/lp_files/pEFS/46_7.lp
\ Model foo
\ LP format - for model browsing. Use MPS format to capture full model detail.
Minimize
  z
Subject To
 allocateEach[1]: x[1,1] + x[2,1] + x[3,1] = 1
 allocateEach[2]: x[1,2] + x[2,2] + x[3,2] = 1
 allocateEach[3]: x[1,3] + x[2,3] + x[3,3] = 1
 allocateEach[4]: x[1,4] + x[2,4] + x[3,4] = 1
 allocateEach[5]: x[1,5] + x[2,5] + x[3,5] = 1
 allocateEach[6]: x[1,6] + x[2,6] + x[3,6] = 1
 allocateAllCash: cashProportion[1] + cashProportion[2] + cashProportion[3]
   = 1
 findWorstP[1,2]: z + 0.2206937139073822 cashProportion[1]
   - 0.2206937139073822 cashProportion[2] + 0.0513112884834664 x[1,1]
   + 0.3669400816566742 x[1,2] + 0.0715047633059918 x[1,3]
   + 0.0465295913488064 x[1,4] + 0.0295729576635892 x[1,5]
   + 0.2134476036340898 x[1,6] - 0.0513112884834664 x[2,1]
   - 0.3669400816566742 x[2,2] - 0.0715047633059918 x[2,3]
   - 0.0465295913488064 x[2,4] - 0.0295729576635892 x[2,5]
   - 0.2134476036340898 x[2,6] >= 0
 findWorstP[1,3]: z + 0.2206937139073822 cashProportion[1]
   - 0.2206937139073822 cashProportion[3] + 0.0513112884834664 x[1,1]
   + 0.3669400816566742 x[1,2] + 0.0715047633059918 x[1,3]
   + 0.0465295913488064 x[1,4] + 0.0295729576635892 x[1,5]
   + 0.2134476036340898 x[1,6] - 0.0513112884834664 x[3,1]
   - 0.3669400816566742 x[3,2] - 0.0715047633059918 x[3,3]
   - 0.0465295913488064 x[3,4] - 0.0295729576635892 x[3,5]
   - 0.2134476036340898 x[3,6] >= 0
 findWorstP[2,1]: z - 0.1479545286415308 cashProportion[1]
   + 0.1479545286415308 cashProportion[2] - 0.0561980617956748 x[1,1]
   - 0.0648780608093113 x[1,2] - 0.1462530515621532 x[1,3]
   - 0.165857026607156 x[1,4] - 0.1798140704756738 x[1,5]
   - 0.2390452001084999 x[1,6] + 0.0561980617956748 x[2,1]
   + 0.0648780608093113 x[2,2] + 0.1462530515621532 x[2,3]
   + 0.165857026607156 x[2,4] + 0.1798140704756738 x[2,5]
   + 0.2390452001084999 x[2,6] >= 0
 findWorstP[2,3]: z + 0.1479545286415308 cashProportion[2]
   - 0.1479545286415308 cashProportion[3] + 0.0561980617956748 x[2,1]
   + 0.0648780608093113 x[2,2] + 0.1462530515621532 x[2,3]
   + 0.165857026607156 x[2,4] + 0.1798140704756738 x[2,5]
   + 0.2390452001084999 x[2,6] - 0.0561980617956748 x[3,1]
   - 0.0648780608093113 x[3,2] - 0.1462530515621532 x[3,3]
   - 0.165857026607156 x[3,4] - 0.1798140704756738 x[3,5]
   - 0.2390452001084999 x[3,6] >= 0
 findWorstP[3,1]: z - 0.2601456815816858 cashProportion[1]
   + 0.2601456815816858 cashProportion[3] - 0.0445716267776622 x[1,1]
   - 0.1492369060006937 x[1,2] - 0.215227193895248 x[1,3] - 0.125 x[1,4]
   - 0.1810180367672563 x[1,5] - 0.024800554977454 x[1,6]
   + 0.0445716267776622 x[3,1] + 0.1492369060006937 x[3,2]
   + 0.215227193895248 x[3,3] + 0.125 x[3,4] + 0.1810180367672563 x[3,5]
   + 0.024800554977454 x[3,6] >= 0
 findWorstP[3,2]: z - 0.2601456815816858 cashProportion[2]
   + 0.2601456815816858 cashProportion[3] - 0.0445716267776622 x[2,1]
   - 0.1492369060006937 x[2,2] - 0.215227193895248 x[2,3] - 0.125 x[2,4]
   - 0.1810180367672563 x[2,5] - 0.024800554977454 x[2,6]
   + 0.0445716267776622 x[3,1] + 0.1492369060006937 x[3,2]
   + 0.215227193895248 x[3,3] + 0.125 x[3,4] + 0.1810180367672563 x[3,5]
   + 0.024800554977454 x[3,6] >= 0
Bounds
 z <= 1
 -infinity <= cashProportion[1] <= 1
 -infinity <= cashProportion[2] <= 1
 -infinity <= cashProportion[3] <= 1
Binaries
 x[1,1] x[1,2] x[1,3] x[1,4] x[1,5] x[1,6] x[2,1] x[2,2] x[2,3] x[2,4]
 x[2,5] x[2,6] x[3,1] x[3,2] x[3,3] x[3,4] x[3,5] x[3,6]
End
